% 東山線 (Higashiyama Line)

%station(No, Name).
station(h1, "Takabata").
station(h2, "Hatta").
station(h3, "Iwatsuka").
station(h4, "Nakamura Koen").
station(h5, "Nakamura Nisseki").
station(h6, "Honjin").
station(h7, "Kamejima").
station(h8, "Nagoya").
station(h9, "Fushimi").
station(h10, "Sakae").
station(h11, "Shinsakae-machi").
station(h12, "Chikusa").
station(h13, "Imaike").
station(h14, "Ikeshita").
station(h15, "Kakuozan").
station(h16, "Motoyama").
station(h17, "Higashiyama Koen").
station(h18, "Hoshigaoka").
station(h19, "Issha").
station(h20, "Kamiyashiro").
station(h21, "Hongo").
station(h22, "Fujigaoka").

%adj (Name1, Name2, Operating_dist, Line).
adj(h1, h2, 9, higashiyama).
adj(h2, h3, 11, higashiyama).
adj(h3, h4, 11, higashiyama).
adj(h4, h5, 8, higashiyama).
adj(h5, h6, 7, higashiyama).
adj(h6, h7, 9, higashiyama).
adj(h7, h8, 11, higashiyama).
adj(h8, h9, 14, higashiyama).
adj(h9, h10, 10, higashiyama).
adj(h10, h11, 11, higashiyama).
adj(h11, h12, 9, higashiyama).
adj(h12, h13, 7, higashiyama).
adj(h13, h14, 9, higashiyama).
adj(h14, h15, 6, higashiyama).
adj(h15, h16, 10, higashiyama).
adj(h16, h17, 9, higashiyama).
adj(h17, h18, 11, higashiyama).
adj(h18, h19, 13, higashiyama).
adj(h19, h20, 11, higashiyama).
adj(h20, h21, 7, higashiyama).
adj(h21, h22, 13, higashiyama).
