% 名城線 (Meijo Line)

%station(No, Name).
station(m1, "Kanayama").
station(m2, "Higashi Betsuin").
station(m3, "Kamimaezu").
station(m4, "Yabacho").
station(m5, "Sakae").
station(m6, "Hisaya-odori").
station(m7, "Nagoyajo").
station(m8, "Meijo Koen").
station(m9, "Kurokawa").
station(m10, "Shiga-hondori").
station(m11, "Heian-dori").
station(m12, "Ozone").
station(m13, "Nagoya Dome-mae Yada").
station(m14, "Sunadabashi").
station(m15, "Chayagasaka").
station(m16, "Jiyugaoka").
station(m17, "Motoyama").
station(m18, "Nagoya Daigaku").
station(m19, "Yagoto Nisseki").
station(m20, "Yagoto").
station(m21, "Sogo Rihabiri Center").
station(m22, "Mizuho Undojo Higashi").
station(m23, "Aratamabashi").
station(m24, "Myo-on-dori").
station(m25, "Horita").
station(m26, "Atsuta-jingu-temma-cho").
station(m27, "Atsuta-jingu-nishi").
station(m28, "Nishi Takakura").

%adj (Name1, Name2, Operating_dist, Line).
adj(m1, m2, 7, meijo).
adj(m2, m3, 9, meijo).
adj(m3, m4, 7, meijo).
adj(m4, m5, 7, meijo).
adj(m5, m6, 4, meijo).
adj(m6, m7, 9, meijo).
adj(m7, m8, 11, meijo).
adj(m8, m9, 10, meijo).
adj(m9, m10, 10, meijo).
adj(m10, m11, 8, meijo).
adj(m11, m12, 7, meijo).
adj(m12, m13, 8, meijo).
adj(m13, m14, 9, meijo).
adj(m14, m15, 9, meijo).
adj(m15, m16, 12, meijo).
adj(m16, m17, 14, meijo).
adj(m17, m18, 10, meijo).
adj(m18, m19, 11, meijo).
adj(m19, m20, 10, meijo).
adj(m20, m21, 13, meijo).
adj(m21, m22, 10, meijo).
adj(m22, m23, 12, meijo).
adj(m23, m24, 7, meijo).
adj(m24, m25, 8, meijo).
adj(m25, m26, 12, meijo).
adj(m26, m27, 10, meijo).
adj(m27, m28, 9, meijo).
adj(m28, m1, 11, meijo).

