% 桜通線 (sakura-dori Line)

% station(No, Name).
station(s1, "Taiko-dori").
station(s2, "Nagoya").
station(s3, "Kokusai Center").
station(s4, "Marunouchi").
station(s5, "Hisaya-odori").
station(s6, "Takaoka").
station(s7, "Kurumamichi").
station(s8, "Imaike").
station(s9, "Fukiage").
station(s10, "Gokiso").
station(s11, "sakurayama").
station(s12, "Mizuho Kuyakusho").
station(s13, "Mizuho Undojo Nishi").
station(s14, "Aratamabashi").
station(s15, "sakura-hommachi").
station(s16, "Tsurusato").
station(s17, "Nonami").
station(s18, "Naruko Kita").
station(s19, "Aioiyama").
station(s20, "Kamisawa").
station(s21, "Tokushige").

%adj (Name1, Name2, Operating_dist, Line).
adj(s1, s2, 9, sakuradori).
adj(s2, s3, 7, sakuradori).
adj(s3, s4, 8, sakuradori).
adj(s4, s5, 9, sakuradori).
adj(s5, s6, 7, sakuradori).
adj(s6, s7, 13, sakuradori).
adj(s7, s8 , 10, sakuradori).
adj(s8, s9, 11, sakuradori).
adj(s9, s10, 10, sakuradori).
adj(s10, s11, 11, sakuradori).
adj(s11, s12, 9, sakuradori).
adj(s12, s13, 7, sakuradori).
adj(s13, s14, 7, sakuradori).
adj(s14, s15, 11, sakuradori).
adj(s15, s16, 9, sakuradori).
adj(s16, s17, 11, sakuradori).
adj(s17, s18, 11, sakuradori).
adj(s18, s19, 9, sakuradori).
adj(s19, s20, 14, sakuradori).
adj(s20, s21, 8, sakuradori).
