% 乗り換え駅(Transfer stastion)

%adj(Name1, Name2 , - , Line).
adj(s4, t6, 0, transfer).
adj(h9, t7, 0, transfer).
adj(m3, t9, 0, transfer).
adj(s10, t12, 0, transfer).
adj(m20, t15, 0, transfer).
adj(h8, s2, 0, transfer).
adj(h10, m5, 0, transfer).
adj(h13, s8, 0, transfer).
adj(h16, m17, 0, transfer).
adj(m6, s5, 0, transfer).
adj(m23, s14, 0, transfer).
adj(m1, e1, 0, transfer).
adj(m11, k2, 0, transfer).

%経路・接続号線判別駅(Route/Line Determination Station)

%routing(Name).
determination("Kanayama").
determination("Ozone").
determination("Nishi Takakura").
determination("Kokusai Center").
determination("Fukiage").

