% 鶴舞線 (Tsurumai Line)

% station(No, Name).
station(t1, "Kamiotai").
station(t2, "Shonai Ryokuchi Koen").
station(t3, "Shonai-dori").
station(t4, "Joshin").
station(t5, "Sengen-cho").
station(t6, "Marunouchi").
station(t7, "Fushimi").
station(t8, "Osu Kannon").
station(t9, "Kamimaezu").
station(t10, "Tsurumai").
station(t11, "Arahata").
station(t12, "Gokiso").
station(t13, "Kawana").
station(t14, "Irinaka").
station(t15, "Yagoto").
station(t16, "Shiogama-guchi"). 
station(t17, "Ueda").
station(t18, "Hara").
station(t19, "Hirabari").
station(t20, "Akaike").

%adj (Name1, Name2, Operating_dist, Line).
adj(t1, t2, 14, tsurumai).
adj(t2, t3, 13, tsurumai).
adj(t3, t4, 14, tsurumai).
adj(t4, t5, 8, tsurumai).
adj(t5, t6, 14, tsurumai).
adj(t6, t7, 7, tsurumai).
adj(t7, t8, 8, tsurumai).
adj(t8, t9, 10, tsurumai).
adj(t9, t10, 9, tsurumai).
adj(t10, t11, 13, tsurumai).
adj(t11, t12, 9, tsurumai).
adj(t12, t13, 12, tsurumai).
adj(t13, t14, 10, tsurumai).
adj(t14, t15, 9, tsurumai).
adj(t15, t16, 14, tsurumai).
adj(t16, t17, 12, tsurumai).
adj(t17, t18, 8, tsurumai).
adj(t18, t19, 9, tsurumai).
adj(t19, t20, 11, tsurumai).
